NAME: tsp20_7
COMMENT: 20-tsp problem (Padberg/Rinaldi)
TYPE: TSP
DIMENSION: 20
EDGE_WEIGHT_TYPE : EUC_2D
NODE_COORD_SECTION
1.00 37.38 9.71
2.00 0.82 32.92
3.00 11.63 14.26
4.00 30.27 10.79
5.00 14.63 32.41
6.00 38.76 10.48
7.00 34.29 17.56
8.00 35.38 14.82
9.00 7.74 25.45
10.00 28.70 17.28
11.00 4.24 9.84
12.00 35.63 24.76
13.00 18.15 11.57
14.00 23.94 6.77
15.00 16.12 30.61
16.00 37.66 8.27
17.00 38.72 22.30
18.00 38.83 11.82
19.00 27.88 24.31
20.00 3.30 39.35
